1201 1201 1197 1200 1198 1198 1198 1200 1199 1198 659 3115 1200 2771 1200 1198 1199 1201 1188 1189 1188 1189 1189 1189 1189 1189 1200 1199 1201 1189 659 659 659 1189 2771 659 3115 1544 1544 1544 2771 2771 2771 3121 1198 1200 1198 1200 1198 1199 1197 3121 3115 497 3115 659 3465 3285 3115 3115 1198 1200 1199 1201 1197 3636 1201 1199 1199 1199 3115 1201 1199 1198 1197 1188 1188 1188 1188 1188 1188 1188 1188 1188 3121 2072 1200 1200 1200 1200 1198 1197 1200 3115 3115 3115 1200 3115 3121 3115 3115 3115 3115 3115 3115 2768 